c description: Random 3-CNF over 18 variables and 77 clauses
c generator: CNFgen (0.9.2)
c copyright: (C) 2012-2022 Massimo Lauria <massimo.lauria@uniroma1.it>
c url: https://massimolauria.net/cnfgen
c command line: cnfgen --output ../CNF/18_bit_77_119.cnf randkcnf 3 18 77
c
p cnf 18 77
-1 4 -16 0
-5 -10 -16 0
2 -4 9 0
14 16 -18 0
-4 13 14 0
3 8 -13 0
5 9 -10 0
-12 -15 16 0
4 -9 15 0
7 -9 -11 0
4 9 -10 0
15 -17 -18 0
-3 -8 17 0
1 -14 18 0
2 6 -14 0
-1 -12 -15 0
-3 6 15 0
1 4 -14 0
4 -6 9 0
-2 12 -17 0
1 4 -18 0
3 -14 -17 0
-3 -7 11 0
4 -11 -16 0
-4 -7 -13 0
6 -9 -10 0
8 16 -18 0
1 -7 -13 0
-4 -12 -13 0
-2 -10 15 0
-8 -15 17 0
3 5 17 0
7 12 16 0
-11 15 17 0
11 -13 -16 0
14 15 16 0
1 -12 18 0
-5 -7 16 0
-8 12 17 0
-11 15 16 0
-5 6 -11 0
-1 2 -4 0
7 9 14 0
2 -9 -12 0
3 -8 -9 0
-2 10 14 0
11 -17 18 0
2 -4 10 0
-2 4 -13 0
-8 -14 17 0
-8 -9 -14 0
-6 -17 18 0
-4 -5 -13 0
3 9 -11 0
3 8 -14 0
3 -4 -12 0
-8 9 11 0
-5 -6 14 0
-9 11 18 0
-1 -5 6 0
-8 -11 -17 0
9 12 -14 0
-1 3 -12 0
6 -7 -15 0
5 7 11 0
4 7 8 0
-5 16 18 0
-4 15 -16 0
-7 -12 18 0
7 -11 15 0
9 -12 13 0
1 3 -12 0
-13 -15 16 0
1 -2 18 0
5 -8 -12 0
-2 7 -16 0
-12 -16 17 0
